p cnf 965 2478
51 -698 -699 0
-51 698 0
-51 699 0
52 -51 -3 0
-52 51 0
-52 3 0
53 -700 -701 0
-53 700 0
-53 701 0
54 -53 -702 0
-54 53 0
-54 702 0
55 -703 -704 0
-55 703 0
-55 704 0
56 -705 -7 0
-56 705 0
-56 7 0
57 -56 -9 0
-57 56 0
-57 9 0
58 -706 -55 0
-58 706 0
-58 55 0
59 -11 -10 0
-59 11 0
-59 10 0
60 -59 -2 0
-60 59 0
-60 2 0
61 -707 -58 0
-61 707 0
-61 58 0
62 -3 -2 0
-62 3 0
-62 2 0
63 -62 -6 0
-63 62 0
-63 6 0
64 -708 -61 0
-64 708 0
-64 61 0
65 -13 -709 0
-65 13 0
-65 709 0
66 -65 -14 0
-66 65 0
-66 14 0
67 -710 -64 0
-67 710 0
-67 64 0
68 -16 -711 0
-68 16 0
-68 711 0
69 -68 -712 0
-69 68 0
-69 712 0
70 -713 -67 0
-70 713 0
-70 67 0
71 -714 -18 0
-71 714 0
-71 18 0
72 -71 -20 0
-72 71 0
-72 20 0
73 -715 -70 0
-73 715 0
-73 70 0
74 -716 -717 0
-74 716 0
-74 717 0
75 -74 -718 0
-75 74 0
-75 718 0
76 -719 -73 0
-76 719 0
-76 73 0
77 -21 -3 0
-77 21 0
-77 3 0
78 -77 -24 0
-78 77 0
-78 24 0
79 -720 -76 0
-79 720 0
-79 76 0
80 -26 -721 0
-80 26 0
-80 721 0
81 -80 -24 0
-81 80 0
-81 24 0
82 -722 -79 0
-82 722 0
-82 79 0
83 -723 -3 0
-83 723 0
-83 3 0
84 -83 -702 0
-84 83 0
-84 702 0
85 -724 -82 0
-85 724 0
-85 82 0
86 -28 -725 0
-86 28 0
-86 725 0
87 -86 -726 0
-87 86 0
-87 726 0
88 -727 -85 0
-88 727 0
-88 85 0
89 -728 -19 0
-89 728 0
-89 19 0
90 -89 -30 0
-90 89 0
-90 30 0
91 -729 -88 0
-91 729 0
-91 88 0
92 -27 -730 0
-92 27 0
-92 730 0
93 -92 -31 0
-93 92 0
-93 31 0
94 -731 -91 0
-94 731 0
-94 91 0
95 -728 -701 0
-95 728 0
-95 701 0
96 -95 -30 0
-96 95 0
-96 30 0
97 -732 -94 0
-97 732 0
-97 94 0
98 -4 -698 0
-98 4 0
-98 698 0
99 -98 -32 0
-99 98 0
-99 32 0
100 -733 -97 0
-100 733 0
-100 97 0
101 -23 -716 0
-101 23 0
-101 716 0
102 -101 -734 0
-102 101 0
-102 734 0
103 -735 -100 0
-103 735 0
-103 100 0
104 -34 -736 0
-104 34 0
-104 736 0
105 -104 -737 0
-105 104 0
-105 737 0
106 -738 -103 0
-106 738 0
-106 103 0
107 -36 -739 0
-107 36 0
-107 739 0
108 -107 -17 0
-108 107 0
-108 17 0
109 -740 -106 0
-109 740 0
-109 106 0
110 -37 -13 0
-110 37 0
-110 13 0
111 -110 -38 0
-111 110 0
-111 38 0
112 -741 -109 0
-112 741 0
-112 109 0
113 -742 -743 0
-113 742 0
-113 743 0
114 -113 -40 0
-114 113 0
-114 40 0
115 -744 -112 0
-115 744 0
-115 112 0
116 -41 -27 0
-116 41 0
-116 27 0
117 -116 -745 0
-117 116 0
-117 745 0
118 -746 -115 0
-118 746 0
-118 115 0
119 -728 -747 0
-119 728 0
-119 747 0
120 -119 -40 0
-120 119 0
-120 40 0
121 -748 -118 0
-121 748 0
-121 118 0
122 -749 -716 0
-122 749 0
-122 716 0
123 -122 -742 0
-123 122 0
-123 742 0
124 -750 -121 0
-124 750 0
-124 121 0
125 -40 -734 0
-125 40 0
-125 734 0
126 -125 -726 0
-126 125 0
-126 726 0
127 -751 -124 0
-127 751 0
-127 124 0
128 -752 -10 0
-128 752 0
-128 10 0
129 -128 -17 0
-129 128 0
-129 17 0
130 -753 -127 0
-130 753 0
-130 127 0
131 -33 -754 0
-131 33 0
-131 754 0
132 -131 -755 0
-132 131 0
-132 755 0
133 -756 -130 0
-133 756 0
-133 130 0
134 -32 -19 0
-134 32 0
-134 19 0
135 -134 -755 0
-135 134 0
-135 755 0
136 -757 -133 0
-136 757 0
-136 133 0
137 -26 -758 0
-137 26 0
-137 758 0
138 -137 -759 0
-138 137 0
-138 759 0
139 -760 -136 0
-139 760 0
-139 136 0
140 -9 -8 0
-140 9 0
-140 8 0
141 -140 -24 0
-141 140 0
-141 24 0
142 -761 -139 0
-142 761 0
-142 139 0
143 -762 -38 0
-143 762 0
-143 38 0
144 -143 -699 0
-144 143 0
-144 699 0
145 -763 -142 0
-145 763 0
-145 142 0
146 -764 -765 0
-146 764 0
-146 765 0
147 -146 -759 0
-147 146 0
-147 759 0
148 -766 -145 0
-148 766 0
-148 145 0
149 -767 -37 0
-149 767 0
-149 37 0
150 -149 -768 0
-150 149 0
-150 768 0
151 -769 -148 0
-151 769 0
-151 148 0
152 -14 -3 0
-152 14 0
-152 3 0
153 -152 -24 0
-153 152 0
-153 24 0
154 -770 -151 0
-154 770 0
-154 151 0
155 -767 -705 0
-155 767 0
-155 705 0
156 -155 -759 0
-156 155 0
-156 759 0
157 -771 -154 0
-157 771 0
-157 154 0
158 -39 -33 0
-158 39 0
-158 33 0
159 -158 -711 0
-159 158 0
-159 711 0
160 -772 -157 0
-160 772 0
-160 157 0
161 -773 -700 0
-161 773 0
-161 700 0
162 -161 -762 0
-162 161 0
-162 762 0
163 -774 -160 0
-163 774 0
-163 160 0
164 -749 -18 0
-164 749 0
-164 18 0
165 -164 -30 0
-165 164 0
-165 30 0
166 -775 -163 0
-166 775 0
-166 163 0
167 -749 -776 0
-167 749 0
-167 776 0
168 -167 -714 0
-168 167 0
-168 714 0
169 -777 -166 0
-169 777 0
-169 166 0
170 -22 -1 0
-170 22 0
-170 1 0
171 -170 -739 0
-171 170 0
-171 739 0
172 -778 -169 0
-172 778 0
-172 169 0
173 -755 -3 0
-173 755 0
-173 3 0
174 -173 -779 0
-174 173 0
-174 779 0
175 -780 -172 0
-175 780 0
-175 172 0
176 -781 -700 0
-176 781 0
-176 700 0
177 -176 -782 0
-177 176 0
-177 782 0
178 -783 -175 0
-178 783 0
-178 175 0
179 -30 -12 0
-179 30 0
-179 12 0
180 -179 -768 0
-180 179 0
-180 768 0
181 -784 -178 0
-181 784 0
-181 178 0
182 -773 -2 0
-182 773 0
-182 2 0
183 -182 -755 0
-183 182 0
-183 755 0
184 -785 -181 0
-184 785 0
-184 181 0
185 -716 -7 0
-185 716 0
-185 7 0
186 -185 -762 0
-186 185 0
-186 762 0
187 -786 -184 0
-187 786 0
-187 184 0
188 -781 -39 0
-188 781 0
-188 39 0
189 -188 -16 0
-189 188 0
-189 16 0
190 -787 -187 0
-190 787 0
-190 187 0
191 -15 -9 0
-191 15 0
-191 9 0
192 -191 -779 0
-192 191 0
-192 779 0
193 -788 -190 0
-193 788 0
-193 190 0
194 -36 -743 0
-194 36 0
-194 743 0
195 -194 -40 0
-195 194 0
-195 40 0
196 -789 -193 0
-196 789 0
-196 193 0
197 -33 -747 0
-197 33 0
-197 747 0
198 -197 -790 0
-198 197 0
-198 790 0
199 -791 -196 0
-199 791 0
-199 196 0
200 -742 -792 0
-200 742 0
-200 792 0
201 -200 -779 0
-201 200 0
-201 779 0
202 -793 -199 0
-202 793 0
-202 199 0
203 -39 -723 0
-203 39 0
-203 723 0
204 -203 -10 0
-204 203 0
-204 10 0
205 -794 -202 0
-205 794 0
-205 202 0
206 -773 -728 0
-206 773 0
-206 728 0
207 -206 -698 0
-207 206 0
-207 698 0
208 -795 -205 0
-208 795 0
-208 205 0
209 -37 -796 0
-209 37 0
-209 796 0
210 -209 -20 0
-210 209 0
-210 20 0
211 -797 -208 0
-211 797 0
-211 208 0
212 -46 -22 0
-212 46 0
-212 22 0
213 -212 -33 0
-213 212 0
-213 33 0
214 -798 -211 0
-214 798 0
-214 211 0
215 -43 -759 0
-215 43 0
-215 759 0
216 -215 -712 0
-216 215 0
-216 712 0
217 -799 -214 0
-217 799 0
-217 214 0
218 -25 -9 0
-218 25 0
-218 9 0
219 -218 -32 0
-219 218 0
-219 32 0
220 -800 -217 0
-220 800 0
-220 217 0
221 -13 -2 0
-221 13 0
-221 2 0
222 -221 -790 0
-222 221 0
-222 790 0
223 -801 -220 0
-223 801 0
-223 220 0
224 -47 -28 0
-224 47 0
-224 28 0
225 -224 -776 0
-225 224 0
-225 776 0
226 -802 -223 0
-226 802 0
-226 223 0
227 -11 -758 0
-227 11 0
-227 758 0
228 -227 -24 0
-228 227 0
-228 24 0
229 -803 -226 0
-229 803 0
-229 226 0
230 -22 -725 0
-230 22 0
-230 725 0
231 -230 -8 0
-231 230 0
-231 8 0
232 -804 -229 0
-232 804 0
-232 229 0
233 -38 -11 0
-233 38 0
-233 11 0
234 -233 -726 0
-234 233 0
-234 726 0
235 -805 -232 0
-235 805 0
-235 232 0
236 -27 -699 0
-236 27 0
-236 699 0
237 -236 -29 0
-237 236 0
-237 29 0
238 -806 -235 0
-238 806 0
-238 235 0
239 -755 -776 0
-239 755 0
-239 776 0
240 -239 -702 0
-240 239 0
-240 702 0
241 -807 -238 0
-241 807 0
-241 238 0
242 -36 -701 0
-242 36 0
-242 701 0
243 -242 -712 0
-243 242 0
-243 712 0
244 -808 -241 0
-244 808 0
-244 241 0
245 -781 -709 0
-245 781 0
-245 709 0
246 -245 -31 0
-246 245 0
-246 31 0
247 -809 -244 0
-247 809 0
-247 244 0
248 -796 -3 0
-248 796 0
-248 3 0
249 -248 -41 0
-249 248 0
-249 41 0
250 -810 -247 0
-250 810 0
-250 247 0
251 -25 -712 0
-251 25 0
-251 712 0
252 -251 -35 0
-252 251 0
-252 35 0
253 -811 -250 0
-253 811 0
-253 250 0
254 -26 -705 0
-254 26 0
-254 705 0
255 -254 -11 0
-255 254 0
-255 11 0
256 -812 -253 0
-256 812 0
-256 253 0
257 -44 -742 0
-257 44 0
-257 742 0
258 -257 -3 0
-258 257 0
-258 3 0
259 -813 -256 0
-259 813 0
-259 256 0
260 -718 -705 0
-260 718 0
-260 705 0
261 -260 -40 0
-261 260 0
-261 40 0
262 -814 -259 0
-262 814 0
-262 259 0
263 -18 -711 0
-263 18 0
-263 711 0
264 -263 -755 0
-264 263 0
-264 755 0
265 -815 -262 0
-265 815 0
-265 262 0
266 -781 -36 0
-266 781 0
-266 36 0
267 -266 -23 0
-267 266 0
-267 23 0
268 -816 -265 0
-268 816 0
-268 265 0
269 -817 -736 0
-269 817 0
-269 736 0
270 -269 -8 0
-270 269 0
-270 8 0
271 -818 -268 0
-271 818 0
-271 268 0
272 -26 -20 0
-272 26 0
-272 20 0
273 -272 -40 0
-273 272 0
-273 40 0
274 -819 -271 0
-274 819 0
-274 271 0
275 -773 -22 0
-275 773 0
-275 22 0
276 -275 -5 0
-276 275 0
-276 5 0
277 -820 -274 0
-277 820 0
-277 274 0
278 -29 -14 0
-278 29 0
-278 14 0
279 -278 -42 0
-279 278 0
-279 42 0
280 -821 -277 0
-280 821 0
-280 277 0
281 -717 -9 0
-281 717 0
-281 9 0
282 -281 -41 0
-282 281 0
-282 41 0
283 -822 -280 0
-283 822 0
-283 280 0
284 -792 -18 0
-284 792 0
-284 18 0
285 -284 -702 0
-285 284 0
-285 702 0
286 -823 -283 0
-286 823 0
-286 283 0
287 -25 -734 0
-287 25 0
-287 734 0
288 -287 -17 0
-288 287 0
-288 17 0
289 -824 -286 0
-289 824 0
-289 286 0
290 -39 -27 0
-290 39 0
-290 27 0
291 -290 -16 0
-291 290 0
-291 16 0
292 -825 -289 0
-292 825 0
-292 289 0
293 -754 -19 0
-293 754 0
-293 19 0
294 -293 -782 0
-294 293 0
-294 782 0
295 -826 -292 0
-295 826 0
-295 292 0
296 -767 -45 0
-296 767 0
-296 45 0
297 -296 -705 0
-297 296 0
-297 705 0
298 -827 -295 0
-298 827 0
-298 295 0
299 -22 -717 0
-299 22 0
-299 717 0
300 -299 -19 0
-300 299 0
-300 19 0
301 -828 -298 0
-301 828 0
-301 298 0
302 -41 -39 0
-302 41 0
-302 39 0
303 -302 -35 0
-303 302 0
-303 35 0
304 -829 -301 0
-304 829 0
-304 301 0
305 -37 -736 0
-305 37 0
-305 736 0
306 -305 -712 0
-306 305 0
-306 712 0
307 -830 -304 0
-307 830 0
-307 304 0
308 -709 -758 0
-308 709 0
-308 758 0
309 -308 -759 0
-309 308 0
-309 759 0
310 -831 -307 0
-310 831 0
-310 307 0
311 -782 -40 0
-311 782 0
-311 40 0
312 -311 -29 0
-312 311 0
-312 29 0
313 -832 -310 0
-313 832 0
-313 310 0
314 -47 -764 0
-314 47 0
-314 764 0
315 -314 -754 0
-315 314 0
-315 754 0
316 -833 -313 0
-316 833 0
-316 313 0
317 -23 -725 0
-317 23 0
-317 725 0
318 -317 -26 0
-318 317 0
-318 26 0
319 -834 -316 0
-319 834 0
-319 316 0
320 -48 -717 0
-320 48 0
-320 717 0
321 -320 -19 0
-321 320 0
-321 19 0
322 -835 -319 0
-322 835 0
-322 319 0
323 -46 -817 0
-323 46 0
-323 817 0
324 -323 -10 0
-324 323 0
-324 10 0
325 -836 -322 0
-325 836 0
-325 322 0
326 -721 -18 0
-326 721 0
-326 18 0
327 -326 -762 0
-327 326 0
-327 762 0
328 -837 -325 0
-328 837 0
-328 325 0
329 -50 -765 0
-329 50 0
-329 765 0
330 -329 -45 0
-330 329 0
-330 45 0
331 -838 -328 0
-331 838 0
-331 328 0
332 -50 -721 0
-332 50 0
-332 721 0
333 -332 -2 0
-333 332 0
-333 2 0
334 -839 -331 0
-334 839 0
-334 331 0
335 -782 -36 0
-335 782 0
-335 36 0
336 -335 -779 0
-336 335 0
-336 779 0
337 -840 -334 0
-337 840 0
-337 334 0
338 -711 -776 0
-338 711 0
-338 776 0
339 -338 -759 0
-339 338 0
-339 759 0
340 -841 -337 0
-340 841 0
-340 337 0
341 -773 -718 0
-341 773 0
-341 718 0
342 -341 -45 0
-342 341 0
-342 45 0
343 -842 -340 0
-343 842 0
-343 340 0
344 -764 -700 0
-344 764 0
-344 700 0
345 -344 -8 0
-345 344 0
-345 8 0
346 -843 -343 0
-346 843 0
-346 343 0
347 -716 -734 0
-347 716 0
-347 734 0
348 -347 -782 0
-348 347 0
-348 782 0
349 -844 -346 0
-349 844 0
-349 346 0
350 -845 -7 0
-350 845 0
-350 7 0
351 -350 -20 0
-351 350 0
-351 20 0
352 -846 -349 0
-352 846 0
-352 349 0
353 -742 -8 0
-353 742 0
-353 8 0
354 -353 -24 0
-354 353 0
-354 24 0
355 -847 -352 0
-355 847 0
-355 352 0
356 -728 -13 0
-356 728 0
-356 13 0
357 -356 -759 0
-357 356 0
-357 759 0
358 -848 -355 0
-358 848 0
-358 355 0
359 -21 -18 0
-359 21 0
-359 18 0
360 -359 -14 0
-360 359 0
-360 14 0
361 -849 -358 0
-361 849 0
-361 358 0
362 -742 -754 0
-362 742 0
-362 754 0
363 -362 -726 0
-363 362 0
-363 726 0
364 -850 -361 0
-364 850 0
-364 361 0
365 -21 -13 0
-365 21 0
-365 13 0
366 -365 -49 0
-366 365 0
-366 49 0
367 -851 -364 0
-367 851 0
-367 364 0
368 -754 -714 0
-368 754 0
-368 714 0
369 -368 -779 0
-369 368 0
-369 779 0
370 -852 -367 0
-370 852 0
-370 367 0
371 -762 -709 0
-371 762 0
-371 709 0
372 -371 -726 0
-372 371 0
-372 726 0
373 -853 -370 0
-373 853 0
-373 370 0
374 -46 -754 0
-374 46 0
-374 754 0
375 -374 -726 0
-375 374 0
-375 726 0
376 -854 -373 0
-376 854 0
-376 373 0
377 -38 -796 0
-377 38 0
-377 796 0
378 -377 -33 0
-378 377 0
-378 33 0
379 -855 -376 0
-379 855 0
-379 376 0
380 -767 -698 0
-380 767 0
-380 698 0
381 -380 -17 0
-381 380 0
-381 17 0
382 -856 -379 0
-382 856 0
-382 379 0
383 -18 -725 0
-383 18 0
-383 725 0
384 -383 -747 0
-384 383 0
-384 747 0
385 -857 -382 0
-385 857 0
-385 382 0
386 -752 -41 0
-386 752 0
-386 41 0
387 -386 -759 0
-387 386 0
-387 759 0
388 -858 -385 0
-388 858 0
-388 385 0
389 -43 -4 0
-389 43 0
-389 4 0
390 -389 -736 0
-390 389 0
-390 736 0
391 -859 -388 0
-391 859 0
-391 388 0
392 -50 -38 0
-392 50 0
-392 38 0
393 -392 -702 0
-393 392 0
-393 702 0
394 -860 -391 0
-394 860 0
-394 391 0
395 -146 -44 0
-395 146 0
-395 44 0
396 -861 -394 0
-396 861 0
-396 394 0
397 -38 -764 0
-397 38 0
-397 764 0
398 -397 -758 0
-398 397 0
-398 758 0
399 -862 -396 0
-399 862 0
-399 396 0
400 -776 -701 0
-400 776 0
-400 701 0
401 -400 -745 0
-401 400 0
-401 745 0
402 -863 -399 0
-402 863 0
-402 399 0
403 -709 -1 0
-403 709 0
-403 1 0
404 -403 -16 0
-404 403 0
-404 16 0
405 -864 -402 0
-405 864 0
-405 402 0
406 -8 -4 0
-406 8 0
-406 4 0
407 -406 -31 0
-407 406 0
-407 31 0
408 -865 -405 0
-408 865 0
-408 405 0
409 -790 -705 0
-409 790 0
-409 705 0
410 -409 -24 0
-410 409 0
-410 24 0
411 -866 -408 0
-411 866 0
-411 408 0
412 -749 -714 0
-412 749 0
-412 714 0
413 -412 -754 0
-413 412 0
-413 754 0
414 -867 -411 0
-414 867 0
-414 411 0
415 -9 -7 0
-415 9 0
-415 7 0
416 -415 -44 0
-416 415 0
-416 44 0
417 -868 -414 0
-417 868 0
-417 414 0
418 -754 -730 0
-418 754 0
-418 730 0
419 -418 -758 0
-419 418 0
-419 758 0
420 -869 -417 0
-420 869 0
-420 417 0
421 -47 -725 0
-421 47 0
-421 725 0
422 -421 -754 0
-422 421 0
-422 754 0
423 -870 -420 0
-423 870 0
-423 420 0
424 -773 -10 0
-424 773 0
-424 10 0
425 -424 -871 0
-425 424 0
-425 871 0
426 -872 -423 0
-426 872 0
-426 423 0
427 -20 -9 0
-427 20 0
-427 9 0
428 -427 -737 0
-428 427 0
-428 737 0
429 -873 -426 0
-429 873 0
-429 426 0
430 -49 -5 0
-430 49 0
-430 5 0
431 -430 -41 0
-431 430 0
-431 41 0
432 -874 -429 0
-432 874 0
-432 429 0
433 -25 -13 0
-433 25 0
-433 13 0
434 -433 -19 0
-434 433 0
-434 19 0
435 -875 -432 0
-435 875 0
-435 432 0
436 -50 -782 0
-436 50 0
-436 782 0
437 -436 -24 0
-437 436 0
-437 24 0
438 -876 -435 0
-438 876 0
-438 435 0
439 -796 -730 0
-439 796 0
-439 730 0
440 -439 -747 0
-440 439 0
-440 747 0
441 -877 -438 0
-441 877 0
-441 438 0
442 -43 -734 0
-442 43 0
-442 734 0
443 -442 -782 0
-443 442 0
-443 782 0
444 -878 -441 0
-444 878 0
-444 441 0
445 -43 -26 0
-445 43 0
-445 26 0
446 -445 -699 0
-446 445 0
-446 699 0
447 -879 -444 0
-447 879 0
-447 444 0
448 -723 -776 0
-448 723 0
-448 776 0
449 -448 -31 0
-449 448 0
-449 31 0
450 -880 -447 0
-450 880 0
-450 447 0
451 -36 -16 0
-451 36 0
-451 16 0
452 -451 -17 0
-452 451 0
-452 17 0
453 -881 -450 0
-453 881 0
-453 450 0
454 -42 -19 0
-454 42 0
-454 19 0
455 -454 -737 0
-455 454 0
-455 737 0
456 -882 -453 0
-456 882 0
-456 453 0
457 -25 -755 0
-457 25 0
-457 755 0
458 -457 -883 0
-458 457 0
-458 883 0
459 -884 -456 0
-459 884 0
-459 456 0
460 -845 -765 0
-460 845 0
-460 765 0
461 -460 -9 0
-461 460 0
-461 9 0
462 -885 -459 0
-462 885 0
-462 459 0
463 -33 -25 0
-463 33 0
-463 25 0
464 -463 -737 0
-464 463 0
-464 737 0
465 -886 -462 0
-465 886 0
-465 462 0
466 -47 -723 0
-466 47 0
-466 723 0
467 -466 -736 0
-467 466 0
-467 736 0
468 -887 -465 0
-468 887 0
-468 465 0
469 -50 -716 0
-469 50 0
-469 716 0
470 -469 -782 0
-470 469 0
-470 782 0
471 -888 -468 0
-471 888 0
-471 468 0
472 -721 -700 0
-472 721 0
-472 700 0
473 -472 -26 0
-473 472 0
-473 26 0
474 -889 -471 0
-474 889 0
-474 471 0
475 -44 -21 0
-475 44 0
-475 21 0
476 -475 -29 0
-476 475 0
-476 29 0
477 -890 -474 0
-477 890 0
-477 474 0
478 -742 -699 0
-478 742 0
-478 699 0
479 -478 -768 0
-479 478 0
-479 768 0
480 -891 -477 0
-480 891 0
-480 477 0
481 -39 -871 0
-481 39 0
-481 871 0
482 -481 -29 0
-482 481 0
-482 29 0
483 -892 -480 0
-483 892 0
-483 480 0
484 -718 -21 0
-484 718 0
-484 21 0
485 -484 -30 0
-485 484 0
-485 30 0
486 -893 -483 0
-486 893 0
-486 483 0
487 -726 -7 0
-487 726 0
-487 7 0
488 -487 -759 0
-488 487 0
-488 759 0
489 -894 -486 0
-489 894 0
-489 486 0
490 -15 -1 0
-490 15 0
-490 1 0
491 -490 -34 0
-491 490 0
-491 34 0
492 -895 -489 0
-492 895 0
-492 489 0
493 -27 -18 0
-493 27 0
-493 18 0
494 -493 -20 0
-494 493 0
-494 20 0
495 -896 -492 0
-495 896 0
-495 492 0
496 -845 -701 0
-496 845 0
-496 701 0
497 -496 -796 0
-497 496 0
-497 796 0
498 -897 -495 0
-498 897 0
-498 495 0
499 -752 -717 0
-499 752 0
-499 717 0
500 -499 -1 0
-500 499 0
-500 1 0
501 -898 -498 0
-501 898 0
-501 498 0
502 -718 -4 0
-502 718 0
-502 4 0
503 -502 -20 0
-503 502 0
-503 20 0
504 -899 -501 0
-504 899 0
-504 501 0
505 -725 -705 0
-505 725 0
-505 705 0
506 -505 -739 0
-506 505 0
-506 739 0
507 -900 -504 0
-507 900 0
-507 504 0
508 -44 -734 0
-508 44 0
-508 734 0
509 -508 -35 0
-509 508 0
-509 35 0
510 -901 -507 0
-510 901 0
-510 507 0
511 -45 -31 0
-511 45 0
-511 31 0
512 -511 -759 0
-512 511 0
-512 759 0
513 -902 -510 0
-513 902 0
-513 510 0
514 -762 -721 0
-514 762 0
-514 721 0
515 -514 -42 0
-515 514 0
-515 42 0
516 -903 -513 0
-516 903 0
-516 513 0
517 -37 -776 0
-517 37 0
-517 776 0
518 -517 -712 0
-518 517 0
-518 712 0
519 -904 -516 0
-519 904 0
-519 516 0
520 -50 -747 0
-520 50 0
-520 747 0
521 -520 -758 0
-521 520 0
-521 758 0
522 -905 -519 0
-522 905 0
-522 519 0
523 -22 -747 0
-523 22 0
-523 747 0
524 -523 -726 0
-524 523 0
-524 726 0
525 -906 -522 0
-525 906 0
-525 522 0
526 -21 -796 0
-526 21 0
-526 796 0
527 -526 -711 0
-527 526 0
-527 711 0
528 -907 -525 0
-528 907 0
-528 525 0
529 -790 -27 0
-529 790 0
-529 27 0
530 -529 -712 0
-530 529 0
-530 712 0
531 -908 -528 0
-531 908 0
-531 528 0
532 -430 -726 0
-532 430 0
-532 726 0
533 -909 -531 0
-533 909 0
-533 531 0
534 -709 -700 0
-534 709 0
-534 700 0
535 -534 -739 0
-535 534 0
-535 739 0
536 -910 -533 0
-536 910 0
-536 533 0
537 -845 -28 0
-537 845 0
-537 28 0
538 -537 -714 0
-538 537 0
-538 714 0
539 -911 -536 0
-539 911 0
-539 536 0
540 -14 -11 0
-540 14 0
-540 11 0
541 -540 -883 0
-541 540 0
-541 883 0
542 -912 -539 0
-542 912 0
-542 539 0
543 -781 -4 0
-543 781 0
-543 4 0
544 -543 -7 0
-544 543 0
-544 7 0
545 -913 -542 0
-545 913 0
-545 542 0
546 -48 -776 0
-546 48 0
-546 776 0
547 -546 -17 0
-547 546 0
-547 17 0
548 -914 -545 0
-548 914 0
-548 545 0
549 -709 -730 0
-549 709 0
-549 730 0
550 -549 -790 0
-550 549 0
-550 790 0
551 -915 -548 0
-551 915 0
-551 548 0
552 -49 -31 0
-552 49 0
-552 31 0
553 -552 -2 0
-553 552 0
-553 2 0
554 -916 -551 0
-554 916 0
-554 551 0
555 -845 -736 0
-555 845 0
-555 736 0
556 -555 -9 0
-556 555 0
-556 9 0
557 -917 -554 0
-557 917 0
-557 554 0
558 -5 -699 0
-558 5 0
-558 699 0
559 -558 -711 0
-559 558 0
-559 711 0
560 -918 -557 0
-560 918 0
-560 557 0
561 -717 -709 0
-561 717 0
-561 709 0
562 -561 -29 0
-562 561 0
-562 29 0
563 -919 -560 0
-563 919 0
-563 560 0
564 -176 -18 0
-564 176 0
-564 18 0
565 -920 -563 0
-565 920 0
-565 563 0
566 -46 -718 0
-566 46 0
-566 718 0
567 -566 -6 0
-567 566 0
-567 6 0
568 -921 -565 0
-568 921 0
-568 565 0
569 -356 -734 0
-569 356 0
-569 734 0
570 -922 -568 0
-570 922 0
-570 568 0
571 -747 -796 0
-571 747 0
-571 796 0
572 -571 -15 0
-572 571 0
-572 15 0
573 -923 -570 0
-573 923 0
-573 570 0
574 -19 -709 0
-574 19 0
-574 709 0
575 -574 -745 0
-575 574 0
-575 745 0
576 -924 -573 0
-576 924 0
-576 573 0
577 -845 -23 0
-577 845 0
-577 23 0
578 -577 -44 0
-578 577 0
-578 44 0
579 -925 -576 0
-579 925 0
-579 576 0
580 -782 -743 0
-580 782 0
-580 743 0
581 -580 -44 0
-581 580 0
-581 44 0
582 -926 -579 0
-582 926 0
-582 579 0
583 -36 -27 0
-583 36 0
-583 27 0
584 -583 -758 0
-584 583 0
-584 758 0
585 -927 -582 0
-585 927 0
-585 582 0
586 -739 -699 0
-586 739 0
-586 699 0
587 -586 -698 0
-587 586 0
-587 698 0
588 -928 -585 0
-588 928 0
-588 585 0
589 -12 -776 0
-589 12 0
-589 776 0
590 -589 -743 0
-590 589 0
-590 743 0
591 -929 -588 0
-591 929 0
-591 588 0
592 -739 -2 0
-592 739 0
-592 2 0
593 -592 -34 0
-593 592 0
-593 34 0
594 -930 -591 0
-594 930 0
-594 591 0
595 -700 -4 0
-595 700 0
-595 4 0
596 -595 -8 0
-596 595 0
-596 8 0
597 -931 -594 0
-597 931 0
-597 594 0
598 -50 -19 0
-598 50 0
-598 19 0
599 -598 -20 0
-599 598 0
-599 20 0
600 -932 -597 0
-600 932 0
-600 597 0
601 -718 -10 0
-601 718 0
-601 10 0
602 -601 -699 0
-602 601 0
-602 699 0
603 -933 -600 0
-603 933 0
-603 600 0
604 -781 -32 0
-604 781 0
-604 32 0
605 -604 -24 0
-605 604 0
-605 24 0
606 -934 -603 0
-606 934 0
-606 603 0
607 -754 -717 0
-607 754 0
-607 717 0
608 -607 -698 0
-608 607 0
-608 698 0
609 -935 -606 0
-609 935 0
-609 606 0
610 -49 -1 0
-610 49 0
-610 1 0
611 -610 -702 0
-611 610 0
-611 702 0
612 -936 -609 0
-612 936 0
-612 609 0
613 -25 -18 0
-613 25 0
-613 18 0
614 -613 -711 0
-614 613 0
-614 711 0
615 -937 -612 0
-615 937 0
-615 612 0
616 -36 -18 0
-616 36 0
-616 18 0
617 -616 -10 0
-617 616 0
-617 10 0
618 -938 -615 0
-618 938 0
-618 615 0
619 -49 -709 0
-619 49 0
-619 709 0
620 -619 -1 0
-620 619 0
-620 1 0
621 -939 -618 0
-621 939 0
-621 618 0
622 -43 -18 0
-622 43 0
-622 18 0
623 -622 -11 0
-623 622 0
-623 11 0
624 -940 -621 0
-624 940 0
-624 621 0
625 -845 -1 0
-625 845 0
-625 1 0
626 -625 -42 0
-626 625 0
-626 42 0
627 -941 -624 0
-627 941 0
-627 624 0
628 -742 -701 0
-628 742 0
-628 701 0
629 -628 -8 0
-629 628 0
-629 8 0
630 -942 -627 0
-630 942 0
-630 627 0
631 -49 -45 0
-631 49 0
-631 45 0
632 -631 -883 0
-632 631 0
-632 883 0
633 -943 -630 0
-633 943 0
-633 630 0
634 -46 -762 0
-634 46 0
-634 762 0
635 -634 -768 0
-635 634 0
-635 768 0
636 -944 -633 0
-636 944 0
-636 633 0
637 -36 -1 0
-637 36 0
-637 1 0
638 -637 -739 0
-638 637 0
-638 739 0
639 -945 -636 0
-639 945 0
-639 636 0
640 -792 -7 0
-640 792 0
-640 7 0
641 -640 -31 0
-641 640 0
-641 31 0
642 -946 -639 0
-642 946 0
-642 639 0
643 -817 -21 0
-643 817 0
-643 21 0
644 -643 -40 0
-644 643 0
-644 40 0
645 -947 -642 0
-645 947 0
-645 642 0
646 -19 -7 0
-646 19 0
-646 7 0
647 -646 -35 0
-647 646 0
-647 35 0
648 -948 -645 0
-648 948 0
-648 645 0
649 -721 -10 0
-649 721 0
-649 10 0
650 -649 -11 0
-650 649 0
-650 11 0
651 -949 -648 0
-651 949 0
-651 648 0
652 -38 -8 0
-652 38 0
-652 8 0
653 -652 -29 0
-653 652 0
-653 29 0
654 -950 -651 0
-654 950 0
-654 651 0
655 -709 -7 0
-655 709 0
-655 7 0
656 -655 -723 0
-656 655 0
-656 723 0
657 -951 -654 0
-657 951 0
-657 654 0
658 -48 -5 0
-658 48 0
-658 5 0
659 -658 -45 0
-659 658 0
-659 45 0
660 -952 -657 0
-660 952 0
-660 657 0
661 -764 -26 0
-661 764 0
-661 26 0
662 -661 -711 0
-662 661 0
-662 711 0
663 -953 -660 0
-663 953 0
-663 660 0
664 -736 -9 0
-664 736 0
-664 9 0
665 -664 -726 0
-665 664 0
-665 726 0
666 -954 -663 0
-666 954 0
-666 663 0
667 -782 -705 0
-667 782 0
-667 705 0
668 -667 -41 0
-668 667 0
-668 41 0
669 -955 -666 0
-669 955 0
-669 666 0
670 -726 -20 0
-670 726 0
-670 20 0
671 -670 -42 0
-671 670 0
-671 42 0
672 -956 -669 0
-672 956 0
-672 669 0
673 -767 -730 0
-673 767 0
-673 730 0
674 -673 -739 0
-674 673 0
-674 739 0
675 -957 -672 0
-675 957 0
-675 672 0
676 -790 -776 0
-676 790 0
-676 776 0
677 -676 -41 0
-677 676 0
-677 41 0
678 -958 -675 0
-678 958 0
-678 675 0
679 -773 -734 0
-679 773 0
-679 734 0
680 -679 -3 0
-680 679 0
-680 3 0
681 -959 -678 0
-681 959 0
-681 678 0
682 -389 -755 0
-682 389 0
-682 755 0
683 -960 -681 0
-683 960 0
-683 681 0
684 -209 -782 0
-684 209 0
-684 782 0
685 -961 -683 0
-685 961 0
-685 683 0
686 -765 -717 0
-686 765 0
-686 717 0
687 -686 -737 0
-687 686 0
-687 737 0
688 -962 -685 0
-688 962 0
-688 685 0
689 -796 -711 0
-689 796 0
-689 711 0
690 -689 -737 0
-690 689 0
-690 737 0
691 -963 -688 0
-691 963 0
-691 688 0
692 -39 -36 0
-692 39 0
-692 36 0
693 -692 -10 0
-693 692 0
-693 10 0
694 -964 -691 0
-694 964 0
-694 691 0
695 -768 -15 0
-695 768 0
-695 15 0
696 -695 -790 0
-696 695 0
-696 790 0
697 -965 -694 0
-697 965 0
-697 694 0
-698 -2 0
698 2 0
-699 -1 0
699 1 0
-700 -5 0
700 5 0
-701 -4 0
701 4 0
-702 -6 0
702 6 0
-703 -54 0
703 54 0
-704 -52 0
704 52 0
-705 -8 0
705 8 0
-706 -57 0
706 57 0
-707 -60 0
707 60 0
-708 -63 0
708 63 0
-709 -12 0
709 12 0
-710 -66 0
710 66 0
-711 -15 0
711 15 0
-712 -17 0
712 17 0
-713 -69 0
713 69 0
-714 -19 0
714 19 0
-715 -72 0
715 72 0
-716 -22 0
716 22 0
-717 -21 0
717 21 0
-718 -23 0
718 23 0
-719 -75 0
719 75 0
-720 -78 0
720 78 0
-721 -25 0
721 25 0
-722 -81 0
722 81 0
-723 -27 0
723 27 0
-724 -84 0
724 84 0
-725 -13 0
725 13 0
-726 -29 0
726 29 0
-727 -87 0
727 87 0
-728 -26 0
728 26 0
-729 -90 0
729 90 0
-730 -9 0
730 9 0
-731 -93 0
731 93 0
-732 -96 0
732 96 0
-733 -99 0
733 99 0
-734 -14 0
734 14 0
-735 -102 0
735 102 0
-736 -33 0
736 33 0
-737 -35 0
737 35 0
-738 -105 0
738 105 0
-739 -11 0
739 11 0
-740 -108 0
740 108 0
-741 -111 0
741 111 0
-742 -39 0
742 39 0
-743 -10 0
743 10 0
-744 -114 0
744 114 0
-745 -42 0
745 42 0
-746 -117 0
746 117 0
-747 -20 0
747 20 0
-748 -120 0
748 120 0
-749 -43 0
749 43 0
-750 -123 0
750 123 0
-751 -126 0
751 126 0
-752 -44 0
752 44 0
-753 -129 0
753 129 0
-754 -30 0
754 30 0
-755 -16 0
755 16 0
-756 -132 0
756 132 0
-757 -135 0
757 135 0
-758 -3 0
758 3 0
-759 -34 0
759 34 0
-760 -138 0
760 138 0
-761 -141 0
761 141 0
-762 -45 0
762 45 0
-763 -144 0
763 144 0
-764 -36 0
764 36 0
-765 -28 0
765 28 0
-766 -147 0
766 147 0
-767 -46 0
767 46 0
-768 -32 0
768 32 0
-769 -150 0
769 150 0
-770 -153 0
770 153 0
-771 -156 0
771 156 0
-772 -159 0
772 159 0
-773 -47 0
773 47 0
-774 -162 0
774 162 0
-775 -165 0
775 165 0
-776 -7 0
776 7 0
-777 -168 0
777 168 0
-778 -171 0
778 171 0
-779 -24 0
779 24 0
-780 -174 0
780 174 0
-781 -48 0
781 48 0
-782 -49 0
782 49 0
-783 -177 0
783 177 0
-784 -180 0
784 180 0
-785 -183 0
785 183 0
-786 -186 0
786 186 0
-787 -189 0
787 189 0
-788 -192 0
788 192 0
-789 -195 0
789 195 0
-790 -40 0
790 40 0
-791 -198 0
791 198 0
-792 -38 0
792 38 0
-793 -201 0
793 201 0
-794 -204 0
794 204 0
-795 -207 0
795 207 0
-796 -18 0
796 18 0
-797 -210 0
797 210 0
-798 -213 0
798 213 0
-799 -216 0
799 216 0
-800 -219 0
800 219 0
-801 -222 0
801 222 0
-802 -225 0
802 225 0
-803 -228 0
803 228 0
-804 -231 0
804 231 0
-805 -234 0
805 234 0
-806 -237 0
806 237 0
-807 -240 0
807 240 0
-808 -243 0
808 243 0
-809 -246 0
809 246 0
-810 -249 0
810 249 0
-811 -252 0
811 252 0
-812 -255 0
812 255 0
-813 -258 0
813 258 0
-814 -261 0
814 261 0
-815 -264 0
815 264 0
-816 -267 0
816 267 0
-817 -37 0
817 37 0
-818 -270 0
818 270 0
-819 -273 0
819 273 0
-820 -276 0
820 276 0
-821 -279 0
821 279 0
-822 -282 0
822 282 0
-823 -285 0
823 285 0
-824 -288 0
824 288 0
-825 -291 0
825 291 0
-826 -294 0
826 294 0
-827 -297 0
827 297 0
-828 -300 0
828 300 0
-829 -303 0
829 303 0
-830 -306 0
830 306 0
-831 -309 0
831 309 0
-832 -312 0
832 312 0
-833 -315 0
833 315 0
-834 -318 0
834 318 0
-835 -321 0
835 321 0
-836 -324 0
836 324 0
-837 -327 0
837 327 0
-838 -330 0
838 330 0
-839 -333 0
839 333 0
-840 -336 0
840 336 0
-841 -339 0
841 339 0
-842 -342 0
842 342 0
-843 -345 0
843 345 0
-844 -348 0
844 348 0
-845 -50 0
845 50 0
-846 -351 0
846 351 0
-847 -354 0
847 354 0
-848 -357 0
848 357 0
-849 -360 0
849 360 0
-850 -363 0
850 363 0
-851 -366 0
851 366 0
-852 -369 0
852 369 0
-853 -372 0
853 372 0
-854 -375 0
854 375 0
-855 -378 0
855 378 0
-856 -381 0
856 381 0
-857 -384 0
857 384 0
-858 -387 0
858 387 0
-859 -390 0
859 390 0
-860 -393 0
860 393 0
-861 -395 0
861 395 0
-862 -398 0
862 398 0
-863 -401 0
863 401 0
-864 -404 0
864 404 0
-865 -407 0
865 407 0
-866 -410 0
866 410 0
-867 -413 0
867 413 0
-868 -416 0
868 416 0
-869 -419 0
869 419 0
-870 -422 0
870 422 0
-871 -31 0
871 31 0
-872 -425 0
872 425 0
-873 -428 0
873 428 0
-874 -431 0
874 431 0
-875 -434 0
875 434 0
-876 -437 0
876 437 0
-877 -440 0
877 440 0
-878 -443 0
878 443 0
-879 -446 0
879 446 0
-880 -449 0
880 449 0
-881 -452 0
881 452 0
-882 -455 0
882 455 0
-883 -41 0
883 41 0
-884 -458 0
884 458 0
-885 -461 0
885 461 0
-886 -464 0
886 464 0
-887 -467 0
887 467 0
-888 -470 0
888 470 0
-889 -473 0
889 473 0
-890 -476 0
890 476 0
-891 -479 0
891 479 0
-892 -482 0
892 482 0
-893 -485 0
893 485 0
-894 -488 0
894 488 0
-895 -491 0
895 491 0
-896 -494 0
896 494 0
-897 -497 0
897 497 0
-898 -500 0
898 500 0
-899 -503 0
899 503 0
-900 -506 0
900 506 0
-901 -509 0
901 509 0
-902 -512 0
902 512 0
-903 -515 0
903 515 0
-904 -518 0
904 518 0
-905 -521 0
905 521 0
-906 -524 0
906 524 0
-907 -527 0
907 527 0
-908 -530 0
908 530 0
-909 -532 0
909 532 0
-910 -535 0
910 535 0
-911 -538 0
911 538 0
-912 -541 0
912 541 0
-913 -544 0
913 544 0
-914 -547 0
914 547 0
-915 -550 0
915 550 0
-916 -553 0
916 553 0
-917 -556 0
917 556 0
-918 -559 0
918 559 0
-919 -562 0
919 562 0
-920 -564 0
920 564 0
-921 -567 0
921 567 0
-922 -569 0
922 569 0
-923 -572 0
923 572 0
-924 -575 0
924 575 0
-925 -578 0
925 578 0
-926 -581 0
926 581 0
-927 -584 0
927 584 0
-928 -587 0
928 587 0
-929 -590 0
929 590 0
-930 -593 0
930 593 0
-931 -596 0
931 596 0
-932 -599 0
932 599 0
-933 -602 0
933 602 0
-934 -605 0
934 605 0
-935 -608 0
935 608 0
-936 -611 0
936 611 0
-937 -614 0
937 614 0
-938 -617 0
938 617 0
-939 -620 0
939 620 0
-940 -623 0
940 623 0
-941 -626 0
941 626 0
-942 -629 0
942 629 0
-943 -632 0
943 632 0
-944 -635 0
944 635 0
-945 -638 0
945 638 0
-946 -641 0
946 641 0
-947 -644 0
947 644 0
-948 -647 0
948 647 0
-949 -650 0
949 650 0
-950 -653 0
950 653 0
-951 -656 0
951 656 0
-952 -659 0
952 659 0
-953 -662 0
953 662 0
-954 -665 0
954 665 0
-955 -668 0
955 668 0
-956 -671 0
956 671 0
-957 -674 0
957 674 0
-958 -677 0
958 677 0
-959 -680 0
959 680 0
-960 -682 0
960 682 0
-961 -684 0
961 684 0
-962 -687 0
962 687 0
-963 -690 0
963 690 0
-964 -693 0
964 693 0
-965 -696 0
965 696 0
697 0
